Figure: small_1
File Number: 20
Nodes: 11
Edges: 20
Max Generations: 1000
Population Size: 100
Mutation Rate: 0.01
Colors Used: 4
Runtime: 0.00

Generation,Average Fitness,Best Fitness
0,6.69,1
1,6.08,1
2,5.18,1
3,4.77,1
4,5.12,1
5,5.0,1
6,4.19,1
7,3.41,1
8,3.04,1
9,2.67,1
10,2.22,1
11,1.86,1
12,1.64,1
13,1.29,1
14,1.18,1
15,1.09,1
16,1.12,1
17,1.17,1
18,1.2,1
19,1.13,1
20,1.17,1
21,1.16,1
22,1.1,1
23,1.09,1
24,1.07,1
25,1.01,1
26,1.06,1
27,1.14,1
28,1.07,1
29,1.17,1
30,1.09,1
31,1.09,1
32,1.09,1
33,1.1,1
34,1.1,1
35,1.12,1
36,1.17,1
37,1.06,1
38,1.21,1
39,1.11,1
40,1.03,1
41,1.17,1
42,1.09,1
43,1.07,1
44,1.11,1
45,1.06,1
46,1.08,1
47,1.23,1
48,1.12,1
49,1.24,1
50,1.12,1
51,1.0,1
52,1.11,1
53,1.09,1
54,1.06,1
55,1.09,1
56,1.1,1
57,1.11,1
58,1.11,1
59,1.17,1
60,1.08,1
61,1.07,1
62,1.11,1
63,1.1,1
64,1.22,1
65,1.13,1
66,1.16,1
67,1.08,1
68,1.1,1
69,1.15,1
70,1.06,1
71,1.25,1
72,1.12,1
73,1.03,1
74,1.11,1
75,1.11,1
76,1.08,1
77,1.23,1
78,1.1,1
79,1.05,1
80,1.12,1
81,1.13,1
82,1.06,1
83,1.11,1
84,1.09,1
85,1.09,1
86,1.24,1
87,1.06,1
88,1.08,1
89,1.08,1
90,1.12,1
91,1.06,1
92,1.11,1
93,1.11,1
94,1.04,1
95,1.08,1
96,1.04,1
97,1.22,1
98,1.2,1
99,1.08,1
100,1.24,1
101,1.09,1
102,1.08,1
103,1.1,1
104,1.06,1
105,1.19,1
106,1.08,1
107,1.11,1
108,1.04,1
109,1.03,1
110,1.06,1
111,1.12,1
112,1.1,1
113,1.17,1
114,1.05,1
115,1.03,1
116,1.06,1
117,1.06,1
118,1.1,1
119,1.09,1
120,1.17,1
121,1.16,1
122,1.21,1
123,1.16,1
124,1.17,1
125,1.18,1
126,1.19,1
127,1.13,1
128,1.1,1
129,1.12,1
130,1.05,1
131,1.22,1
132,1.14,1
133,1.18,1
134,1.05,1
135,1.11,1
136,1.16,1
137,1.17,1
138,1.19,1
139,1.19,1
140,1.16,1
141,1.16,1
142,1.17,1
143,1.13,1
144,1.13,1
145,1.15,1
146,1.11,1
147,1.13,1
148,1.04,1
149,1.24,1
150,1.14,1
151,1.19,1
152,1.1,1
153,1.11,1
154,1.05,1
155,1.08,1
156,1.11,1
157,1.1,1
158,1.15,1
159,1.06,1
160,1.15,1
161,1.11,1
162,1.1,1
163,1.14,1
164,1.18,1
165,1.09,1
166,1.14,1
167,1.07,1
168,1.1,1
169,1.07,1
170,1.21,1
171,1.02,1
172,1.05,1
173,1.13,1
174,1.06,1
175,1.04,1
176,1.14,1
177,1.16,1
178,1.02,1
179,1.06,1
180,1.1,1
181,1.08,1
182,1.16,1
183,1.13,1
184,1.13,1
185,1.09,1
186,1.11,1
187,1.14,1
188,1.18,1
189,1.09,1
190,1.09,1
191,1.24,1
192,1.21,1
193,1.08,1
194,1.18,1
195,1.06,1
196,1.15,1
197,1.15,1
198,1.18,1
199,1.17,1
200,1.1,1
201,1.09,1
202,1.1,1
203,1.13,1
204,1.17,1
205,1.13,1
206,1.08,1
207,1.17,1
208,1.07,1
209,1.09,1
210,1.08,1
211,1.06,1
212,1.13,1
213,1.14,1
214,1.07,1
215,1.18,1
216,1.23,1
217,1.12,1
218,1.12,1
219,1.13,1
220,1.06,1
221,1.14,1
222,1.22,1
223,1.09,1
224,1.15,1
225,1.07,1
226,1.14,1
227,1.14,1
228,1.1,1
229,1.08,1
230,1.07,1
231,1.13,1
232,1.18,1
233,1.12,1
234,1.08,1
235,1.18,1
236,1.09,1
237,1.14,1
238,1.14,1
239,1.16,1
240,1.08,1
241,1.21,1
242,1.16,1
243,1.14,1
244,1.12,1
245,1.09,1
246,1.06,1
247,1.09,1
248,1.04,1
249,1.09,1
250,1.06,1
251,1.09,1
252,1.23,1
253,1.07,1
254,1.12,1
255,1.14,1
256,1.2,1
257,1.09,1
258,1.13,1
259,1.16,1
260,1.02,1
261,1.12,1
262,1.19,1
263,1.14,1
264,1.06,1
265,1.09,1
266,1.11,1
267,1.13,1
268,1.02,1
269,1.12,1
270,1.16,1
271,1.19,1
272,1.12,1
273,1.06,1
274,1.09,1
275,1.08,1
276,1.06,1
277,1.07,1
278,1.13,1
279,1.1,1
280,1.04,1
281,1.16,1
282,1.07,1
283,1.18,1
284,1.21,1
285,1.17,1
286,1.15,1
287,1.17,1
288,1.16,1
289,1.11,1
290,1.18,1
291,1.17,1
292,1.09,1
293,1.12,1
294,1.12,1
295,1.15,1
296,1.2,1
297,1.15,1
298,1.16,1
299,1.15,1
300,1.07,1
301,1.17,1
302,1.13,1
303,1.1,1
304,1.2,1
305,1.08,1
306,1.16,1
307,1.04,1
308,1.06,1
309,1.09,1
310,1.04,1
311,1.05,1
312,1.15,1
313,1.13,1
314,1.19,1
315,1.11,1
316,1.17,1
317,1.15,1
318,1.09,1
319,1.23,1
320,1.17,1
321,1.11,1
322,1.09,1
323,1.09,1
324,1.12,1
325,1.11,1
326,1.17,1
327,1.13,1
328,1.11,1
329,1.17,1
330,1.12,1
331,1.1,1
332,1.08,1
333,1.16,1
334,1.24,1
335,1.1,1
336,1.15,1
337,1.12,1
338,1.17,1
339,1.05,1
340,1.08,1
341,1.09,1
342,1.13,1
343,1.1,1
344,1.09,1
345,1.13,1
346,1.08,1
347,1.04,1
348,1.07,1
349,1.12,1
350,1.14,1
351,1.08,1
352,1.09,1
353,1.15,1
354,1.11,1
355,1.06,1
356,1.03,1
357,1.05,1
358,1.1,1
359,1.08,1
360,1.15,1
361,1.08,1
362,1.07,1
363,1.14,1
364,1.17,1
365,1.11,1
366,1.06,1
367,1.05,1
368,1.01,1
369,1.04,1
370,1.14,1
371,1.13,1
372,1.14,1
373,1.15,1
374,1.13,1
375,1.09,1
376,1.19,1
377,1.23,1
378,1.13,1
379,1.14,1
380,1.07,1
381,1.19,1
382,1.09,1
383,1.12,1
384,1.07,1
385,1.09,1
386,1.12,1
387,1.09,1
388,1.01,1
389,1.16,1
390,1.05,1
391,1.12,1
392,1.23,1
393,1.08,1
394,1.11,1
395,1.07,1
396,1.03,1
397,1.25,1
398,1.08,1
399,1.04,1
400,1.1,1
401,1.12,1
402,1.14,1
403,1.07,1
404,1.14,1
405,1.1,1
406,1.06,1
407,1.13,1
408,1.18,1
409,1.18,1
410,1.14,1
411,1.12,1
412,1.1,1
413,1.07,1
414,1.1,1
415,1.08,1
416,1.11,1
417,1.05,1
418,1.12,1
419,1.22,1
420,1.02,1
421,1.17,1
422,1.06,1
423,1.16,1
424,1.13,1
425,1.29,1
426,1.07,1
427,1.13,1
428,1.09,1
429,1.18,1
430,1.04,1
431,1.06,1
432,1.09,1
433,1.21,1
434,1.09,1
435,1.1,1
436,1.15,1
437,1.07,1
438,1.1,1
439,1.09,1
440,1.08,1
441,1.06,1
442,1.17,1
443,1.07,1
444,1.09,1
445,1.11,1
446,1.07,1
447,1.13,1
448,1.17,1
449,1.13,1
450,1.16,1
451,1.24,1
452,1.26,1
453,1.09,1
454,1.13,1
455,1.28,1
456,1.19,1
457,1.11,1
458,1.07,1
459,1.2,1
460,1.06,1
461,1.09,1
462,1.06,1
463,1.11,1
464,1.08,1
465,1.09,1
466,1.14,1
467,1.07,1
468,1.16,1
469,1.19,1
470,1.12,1
471,1.13,1
472,1.08,1
473,1.1,1
474,1.07,1
475,1.09,1
476,1.16,1
477,1.15,1
478,1.06,1
479,1.07,1
480,1.14,1
481,1.1,1
482,1.15,1
483,1.02,1
484,1.11,1
485,1.06,1
486,1.08,1
487,1.16,1
488,1.13,1
489,1.04,1
490,1.1,1
491,1.13,1
492,1.06,1
493,1.07,1
494,1.06,1
495,1.14,1
496,1.15,1
497,1.06,1
498,1.18,1
499,1.06,1
500,1.07,1
501,1.08,1
502,1.07,1
503,1.04,1
504,1.1,1
505,1.05,1
506,1.17,1
507,1.0,1
508,1.07,1
509,1.06,1
510,1.07,1
511,1.09,1
512,1.09,1
513,1.08,1
514,1.17,1
515,1.19,1
516,1.09,1
517,1.14,1
518,1.06,1
519,1.15,1
520,1.23,1
521,1.05,1
522,1.16,1
523,1.13,1
524,1.18,1
525,1.11,1
526,1.06,1
527,1.1,1
528,1.11,1
529,1.09,1
530,1.15,1
531,1.04,1
532,1.12,1
533,1.17,1
534,1.16,1
535,1.13,1
536,1.11,1
537,1.09,1
538,1.08,1
539,1.06,1
540,1.12,1
541,1.07,1
542,1.2,1
543,1.14,1
544,1.12,1
545,1.18,1
546,1.05,1
547,1.14,1
548,1.21,1
549,1.13,1
550,1.16,1
551,1.16,1
552,1.13,1
553,1.08,1
554,1.2,1
555,1.26,1
556,1.25,1
557,1.07,1
558,1.1,1
559,1.13,1
560,1.22,1
561,1.2,1
562,1.14,1
563,1.07,1
564,1.02,1
565,1.09,1
566,1.14,1
567,1.07,1
568,1.07,1
569,1.06,1
570,1.07,1
571,1.15,1
572,1.11,1
573,1.12,1
574,1.1,1
575,1.22,1
576,1.2,1
577,1.04,1
578,1.16,1
579,1.15,1
580,1.19,1
581,1.16,1
582,1.24,1
583,1.12,1
584,1.06,1
585,1.14,1
586,1.14,1
587,1.07,1
588,1.18,1
589,1.06,1
590,1.12,1
591,1.08,1
592,1.15,1
593,1.11,1
594,1.08,1
595,1.1,1
596,1.04,1
597,1.18,1
598,1.08,1
599,1.29,1
600,1.1,1
601,1.19,1
602,1.19,1
603,1.12,1
604,1.17,1
605,1.06,1
606,1.07,1
607,1.08,1
608,1.09,1
609,1.18,1
610,1.08,1
611,1.15,1
612,1.13,1
613,1.13,1
614,1.08,1
615,1.16,1
616,1.11,1
617,1.13,1
618,1.19,1
619,1.23,1
620,1.2,1
621,1.18,1
622,1.1,1
623,1.08,1
624,1.17,1
625,1.14,1
626,1.04,1
627,1.2,1
628,1.17,1
629,1.16,1
630,1.26,1
631,1.1,1
632,1.15,1
633,1.1,1
634,1.15,1
635,1.17,1
636,1.12,1
637,1.12,1
638,1.07,1
639,1.14,1
640,1.05,1
641,1.09,1
642,1.07,1
643,1.1,1
644,1.14,1
645,1.17,1
646,1.24,1
647,1.14,1
648,1.24,1
649,1.12,1
650,1.11,1
651,1.09,1
652,1.16,1
653,1.08,1
654,1.19,1
655,1.19,1
656,1.13,1
657,1.17,1
658,1.1,1
659,1.18,1
660,1.19,1
661,1.15,1
662,1.16,1
663,1.12,1
664,1.1,1
665,1.22,1
666,1.06,1
667,1.08,1
668,1.12,1
669,1.11,1
670,1.1,1
671,1.1,1
672,1.05,1
673,1.05,1
674,1.1,1
675,1.11,1
676,1.22,1
677,1.1,1
678,1.11,1
679,1.09,1
680,1.22,1
681,1.13,1
682,1.08,1
683,1.16,1
684,1.14,1
685,1.21,1
686,1.08,1
687,1.07,1
688,1.16,1
689,1.09,1
690,1.12,1
691,1.14,1
692,1.18,1
693,1.11,1
694,1.15,1
695,1.18,1
696,1.21,1
697,1.12,1
698,1.1,1
699,1.13,1
700,1.1,1
701,1.1,1
702,1.04,1
703,1.06,1
704,1.11,1
705,1.09,1
706,1.12,1
707,1.04,1
708,1.07,1
709,1.27,1
710,1.24,1
711,1.13,1
712,1.02,1
713,1.11,1
714,1.14,1
715,1.09,1
716,1.14,1
717,1.08,1
718,1.12,1
719,1.17,1
720,1.19,1
721,1.04,1
722,1.23,1
723,1.09,1
724,1.2,1
725,1.08,1
726,1.1,1
727,1.14,1
728,1.07,1
729,1.19,1
730,1.2,1
731,1.08,1
732,1.11,1
733,1.1,1
734,1.21,1
735,1.13,1
736,1.18,1
737,1.14,1
738,1.02,1
739,1.11,1
740,1.12,1
741,1.09,1
742,1.15,1
743,1.16,1
744,1.21,1
745,1.22,1
746,1.15,1
747,1.07,1
748,1.04,1
749,1.18,1
750,1.04,1
751,1.13,1
752,1.13,1
753,1.14,1
754,1.09,1
755,1.15,1
756,1.14,1
757,1.18,1
758,1.19,1
759,1.12,1
760,1.17,1
761,1.24,1
762,1.14,1
763,1.07,1
764,1.04,1
765,1.08,1
766,1.11,1
767,1.01,1
768,1.16,1
769,1.08,1
770,1.08,1
771,1.18,1
772,1.16,1
773,1.12,1
774,1.13,1
775,1.07,1
776,1.14,1
777,1.15,1
778,1.16,1
779,1.08,1
780,1.1,1
781,1.1,1
782,1.25,1
783,1.21,1
784,1.09,1
785,1.06,1
786,1.08,1
787,1.1,1
788,1.12,1
789,1.1,1
790,1.17,1
791,1.16,1
792,1.2,1
793,1.2,1
794,1.19,1
795,1.16,1
796,1.13,1
797,1.13,1
798,1.22,1
799,1.24,1
800,1.02,1
801,1.15,1
802,1.07,1
803,1.16,1
804,1.08,1
805,1.11,1
806,1.1,1
807,1.04,1
808,1.08,1
809,1.11,1
810,1.08,1
811,1.15,1
812,1.05,1
813,1.09,1
814,1.04,1
815,1.13,1
816,1.21,1
817,1.15,1
818,1.13,1
819,1.1,1
820,1.13,1
821,1.06,1
822,1.1,1
823,1.16,1
824,1.18,1
825,1.21,1
826,1.21,1
827,1.11,1
828,1.07,1
829,1.2,1
830,1.18,1
831,1.17,1
832,1.09,1
833,1.24,1
834,1.05,1
835,1.15,1
836,1.1,1
837,1.13,1
838,1.07,1
839,1.1,1
840,1.22,1
841,1.14,1
842,1.08,1
843,1.11,1
844,1.11,1
845,1.19,1
846,1.1,1
847,1.19,1
848,1.08,1
849,1.16,1
850,1.09,1
851,1.15,1
852,1.16,1
853,1.21,1
854,1.06,1
855,1.14,1
856,1.16,1
857,1.13,1
858,1.06,1
859,1.11,1
860,1.0,1
861,1.13,1
862,1.18,1
863,1.12,1
864,1.07,1
865,1.05,1
866,1.12,1
867,1.15,1
868,1.04,1
869,1.17,1
870,1.1,1
871,1.15,1
872,1.08,1
873,1.08,1
874,1.08,1
875,1.15,1
876,1.24,1
877,1.19,1
878,1.09,1
879,1.17,1
880,1.12,1
881,1.08,1
882,1.09,1
883,1.08,1
884,1.09,1
885,1.12,1
886,1.11,1
887,1.06,1
888,1.2,1
889,1.09,1
890,1.14,1
891,1.08,1
892,1.07,1
893,1.11,1
894,1.14,1
895,1.25,1
896,1.16,1
897,1.07,1
898,1.1,1
899,1.05,1
900,1.13,1
901,1.14,1
902,1.07,1
903,1.13,1
904,1.14,1
905,1.29,1
906,1.04,1
907,1.04,1
908,1.21,1
909,1.07,1
910,1.12,1
911,1.17,1
912,1.12,1
913,1.1,1
914,1.04,1
915,1.11,1
916,1.12,1
917,1.15,1
918,1.25,1
919,1.1,1
920,1.14,1
921,1.1,1
922,1.21,1
923,1.2,1
924,1.15,1
925,1.09,1
926,1.09,1
927,1.16,1
928,1.15,1
929,1.08,1
930,1.1,1
931,1.12,1
932,1.14,1
933,1.09,1
934,1.13,1
935,1.17,1
936,1.05,1
937,1.05,1
938,1.07,1
939,1.14,1
940,1.16,1
941,1.22,1
942,1.2,1
943,1.15,1
944,1.05,1
945,1.07,1
946,1.12,1
947,1.08,1
948,1.1,1
949,1.17,1
950,1.07,1
951,1.09,1
952,1.17,1
953,1.15,1
954,1.12,1
955,1.1,1
956,1.14,1
957,1.13,1
958,1.29,1
959,1.13,1
960,1.06,1
961,1.05,1
962,1.14,1
963,1.03,1
964,1.13,1
965,1.09,1
966,1.16,1
967,1.09,1
968,1.16,1
969,1.1,1
970,1.16,1
971,1.12,1
972,1.1,1
973,1.25,1
974,1.13,1
975,1.11,1
976,1.09,1
977,1.2,1
978,1.09,1
979,1.16,1
980,1.19,1
981,1.16,1
982,1.09,1
983,1.06,1
984,1.07,1
985,1.16,1
986,1.19,1
987,1.16,1
988,1.09,1
989,1.12,1
990,1.09,1
991,1.22,1
992,1.11,1
993,1.21,1
994,1.14,1
995,1.1,1
996,1.19,1
997,1.18,1
998,1.07,1
999,1.21,1
